91125.56
80 79 78 77 76 75 74 73 72 71 70 69 68 67 66 65 63 61 59 57 55 53 51 49 47 45 43 41 42 44 46 48 50 52 54 56 58 60 62 64 36 34 29 28 27 26 35 38 40 39 37 33 25 31 32 24 30 23 214 206 205 213 212 204 211 210 203 202 200 209 208 201 207 199 155 159 158 157 156 154 153 152 151 150 149 148 145 161 160 144 143 146 147 142 141 139 140 138 137 136 135 134 133 162 164 166 168 170 172 174 176 175 173 171 169 167 165 163 132 177 131 130 129 128 125 124 123 127 126 122 121 119 120 118 117 116 115 114 113 186 188 190 192 194 196 198 197 195 193 191 189 187 185 184 183 180 179 181 182 178 215 223 224 217 216 225 0 218 219 1 220 2 3 221 222 4 5 12 14 6 7 13 15 19 21 22 20 17 8 9 10 16 18 11 103 105 107 109 111 112 110 108 106 104 102 101 100 99 98 97 96 95 94 93 92 91 90 89 88 87 86 85 84 83 82 81